Maximize
obj : x0 + x1 + x2 + x3 + x4 + x5 + x6 + x7 + x8 + x9 + x10 + x11 + x12 + x13 + x14 + x15 + x16 + x17 + x18 + x19 + x20 + x21 + x22 + x23 + x24 + x25 + x26 + x27 + x28 + x29 + x30 + x31 + x32 + x33 + x34 + x35 + x36 + x37 + x38 + x39 + x40 + x41 + x42 + x43 + x44 + x45 + x46 + x47 + x48 + x49 + x50 + x51 + x52 + x53 + x54 + x55 + x56 + x57 + x58 + x59 + x60 + x61 + x62 + x63 + x64 + x65 + x66 + x67 + x68 + x69 + x70 + x71 + x72 + x73 + x74 + x75 + x76 + x77 + x78 + x79 + x80 + x81 + x82 + x83 + x84 + x85 + x86 + x87 + x88 + x89 + x90 + x91 + x92 + x93 + x94 + x95 + x96 + x97 + x98
st
c1: x3 + x5 + x6 + x7 + x8 = 1
c2: x9 + x13 + x14 + x15 + x16 = 1
c3: x18 + x20 + x22 + x25 + x26 = 1
c4: x27 + x32 + x33 + x34 + x35 = 1
c5: x36 + x37 + x41 + x42 + x43 = 1
c6: x45 + x47 + x49 + x52 + x53 = 1
c7: x56 + x59 + x60 + x61 + x62 = 1
c8: x63 + x65 + x67 + x70 + x71 = 1
c9: x74 + x77 + x78 + x79 + x80 = 1
c10: x83 + x84 + x86 + x87 + x89 = 1
c11: x90 + x93 + x94 + x96 + x98 = 1
c12: x0 + x9 + x18 + x27 + x36 + x45 + x54 + x63 + x72 + x81 + x90 = 2
c13: x1 + x10 + x19 + x28 + x37 + x46 + x55 + x64 + x73 + x82 + x91 = 1
c14: x2 + x11 + x20 + x29 + x38 + x47 + x56 + x65 + x74 + x83 + x92 = 1
c15: x3 + x12 + x21 + x30 + x39 + x48 + x57 + x66 + x75 + x84 + x93 = 1
c16: x4 + x13 + x22 + x31 + x40 + x49 + x58 + x67 + x76 + x85 + x94 = 1
c17: x5 + x14 + x23 + x32 + x41 + x50 + x59 + x68 + x77 + x86 + x95 = 1
c18: x6 + x15 + x24 + x33 + x42 + x51 + x60 + x69 + x78 + x87 + x96 = 1
c19: x7 + x16 + x25 + x34 + x43 + x52 + x61 + x70 + x79 + x88 + x97 = 1
c20: x8 + x17 + x26 + x35 + x44 + x53 + x62 + x71 + x80 + x89 + x98 = 2
c21: x0 + x1 + x2 + x4 = 0
c22: x10 + x11 + x12 + x17 = 0
c23: x19 + x21 + x23 + x24 = 0
c24: x28 + x29 + x30 + x31 = 0
c25: x38 + x39 + x40 + x44 = 0
c26: x46 + x48 + x50 + x51 = 0
c27: x54 + x55 + x57 + x58 = 0
c28: x64 + x66 + x68 + x69 = 0
c29: x72 + x73 + x75 + x76 = 0
c30: x81 + x82 + x85 + x88 = 0
c31: x91 + x92 + x95 + x97 = 0
Binary
x0 x1 x2 x3 x4 x5 x6 x7 x8 x9 x10 x11 x12 x13 x14 x15 x16 x17 x18 x19 x20 x21 x22 x23 x24 x25 x26 x27 x28 x29 x30 x31 x32 x33 x34 x35 x36 x37 x38 x39 x40 x41 x42 x43 x44 x45 x46 x47 x48 x49 x50 x51 x52 x53 x54 x55 x56 x57 x58 x59 x60 x61 x62 x63 x64 x65 x66 x67 x68 x69 x70 x71 x72 x73 x74 x75 x76 x77 x78 x79 x80 
end